p tw 101 108
1 2
2 14
3 5
5 6
6 7
7 8
7 19
8 9
9 10
10 11
11 12
12 13
13 15
14 25
15 16
16 17
17 18
18 101
19 20
20 21
21 22
22 23
23 24
23 27
24 26
25 36
26 101
27 28
28 29
29 30
30 31
31 32
32 33
33 34
34 99
35 37
36 47
37 38
38 39
38 56
39 40
40 41
41 42
41 48
42 43
43 44
44 45
45 46
46 99
47 58
48 49
49 50
50 51
51 52
52 53
53 54
54 55
55 99
56 57
57 59
58 69
59 60
59 65
60 61
61 62
62 63
63 64
64 99
65 66
66 67
67 68
67 92
68 70
69 80
70 71
71 72
71 78
72 73
73 74
74 75
75 76
76 77
77 87
78 79
79 81
80 91
80 35
81 82
82 83
83 84
84 85
85 86
86 87
87 88
88 89
89 90
90 101
91 3
92 93
93 94
94 95
95 96
96 97
97 98
98 99
99 100
100 101
101 4
